; --full-saturate-quant --inst-when=full-last-call --inst-no-entail --term-db-mode=relevant --random-seed=1 --lang=smt2 --tlimit 630
;(set-option :produce-unsat-cores true)
(set-logic ALL_SUPPORTED)
(declare-sort A$ 0)
(declare-sort Nat$ 0)
(declare-sort Enat_bool_fun$ 0)
(declare-sort Enat_enat_fun$ 0)
(declare-sort A_llist_enat_fun$ 0)
(declare-sort Enat_enat_prod_set$ 0)
(declare-sort Enat_enat_bool_fun_fun$ 0)
(declare-sort Enat_enat_prod_bool_fun$ 0)
(declare-datatypes () ((Nat_option$ (none$) (some$ (the$ Nat$)))
  (Enat$ (abs_enat$ (rep_enat$ Nat_option$)))))
(declare-codatatypes () ((A_llist$ (lNil$) (lCons$ (lhd$ A$) (ltl$ A_llist$)))))
(declare-datatypes () ((Enat_enat_prod$ (pair$ (fst$ Enat$) (snd$ Enat$)))))
(declare-fun m$ () Enat$)
(declare-fun n$ () Enat$)
(declare-fun uu$ () Enat_enat_prod_bool_fun$)
(declare-fun xs$ () A_llist$)
(declare-fun ys$ () A_llist$)
(declare-fun min$ (Enat$) Enat_enat_fun$)
(declare-fun llcp$ (A_llist$) A_llist_enat_fun$)
(declare-fun member$ (Enat_enat_prod$ Enat_enat_prod_set$) Bool)
(declare-fun collect$ (Enat_enat_prod_bool_fun$) Enat_enat_prod_set$)
(declare-fun fun_app$ (Enat_enat_prod_bool_fun$ Enat_enat_prod$) Bool)
(declare-fun less_eq$ (Enat$ Enat$) Bool)
(declare-fun llength$ (A_llist$) Enat$)
(declare-fun fun_app$a (A_llist_enat_fun$ A_llist$) Enat$)
(declare-fun fun_app$b (Enat_enat_fun$ Enat$) Enat$)
(declare-fun fun_app$c (Enat_bool_fun$ Enat$) Bool)
(declare-fun fun_app$d (Enat_enat_bool_fun_fun$ Enat$) Enat_bool_fun$)
(assert (! (forall ((?v0 Enat_enat_prod$)) (! (= (fun_app$ uu$ ?v0) (exists ((?v1 A_llist$) (?v2 A_llist$)) (and (= ?v0 (pair$ (fun_app$a (llcp$ ?v1) ?v2) (fun_app$b (min$ (llength$ ?v1)) (llength$ ?v2)))) true))) :pattern ((fun_app$ uu$ ?v0)))) :named a0))
(assert (! (not (less_eq$ m$ n$)) :named a1))
(assert (! (= m$ (fun_app$a (llcp$ xs$) ys$)) :named a2))
(assert (! (forall ((?v0 Enat_enat_bool_fun_fun$) (?v1 Enat$) (?v2 Enat$)) (=> (and (forall ((?v3 Enat$) (?v4 Enat$)) (=> (less_eq$ ?v3 ?v4) (fun_app$c (fun_app$d ?v0 ?v3) ?v4))) (=> (fun_app$c (fun_app$d ?v0 ?v1) ?v2) (fun_app$c (fun_app$d ?v0 ?v2) ?v1))) (fun_app$c (fun_app$d ?v0 ?v2) ?v1))) :named a3))
(assert (! (= n$ (fun_app$b (min$ (llength$ xs$)) (llength$ ys$))) :named a4))
(assert (! (forall ((?v0 Enat$)) (less_eq$ ?v0 ?v0)) :named a5))
(assert (! (member$ (pair$ m$ n$) (collect$ uu$)) :named a6))
(assert (! (forall ((?v0 Enat$) (?v1 Enat$)) (= (= ?v0 ?v1) (and (less_eq$ ?v0 ?v1) (less_eq$ ?v1 ?v0)))) :named a7))
(assert (! (forall ((?v0 Enat$) (?v1 Enat$)) (=> (and (=> (less_eq$ ?v0 ?v1) false) (=> (less_eq$ ?v1 ?v0) false)) false)) :named a8))
(assert (! (forall ((?v0 Enat_enat_bool_fun_fun$) (?v1 Enat$) (?v2 Enat$)) (=> (and (forall ((?v3 Enat$) (?v4 Enat$)) (=> (less_eq$ ?v3 ?v4) (fun_app$c (fun_app$d ?v0 ?v3) ?v4))) (forall ((?v3 Enat$) (?v4 Enat$)) (=> (fun_app$c (fun_app$d ?v0 ?v4) ?v3) (fun_app$c (fun_app$d ?v0 ?v3) ?v4)))) (fun_app$c (fun_app$d ?v0 ?v1) ?v2))) :named a9))
(assert (! (forall ((?v0 Enat$) (?v1 Enat_enat_fun$) (?v2 Enat$) (?v3 Enat$)) (=> (and (= ?v0 (fun_app$b ?v1 ?v2)) (and (less_eq$ ?v2 ?v3) (forall ((?v4 Enat$) (?v5 Enat$)) (=> (less_eq$ ?v4 ?v5) (less_eq$ (fun_app$b ?v1 ?v4) (fun_app$b ?v1 ?v5)))))) (less_eq$ ?v0 (fun_app$b ?v1 ?v3)))) :named a10))
(assert (! (forall ((?v0 Enat$) (?v1 Enat$) (?v2 Enat$)) (=> (and (= ?v0 ?v1) (less_eq$ ?v1 ?v2)) (less_eq$ ?v0 ?v2))) :named a11))
(assert (! (forall ((?v0 Enat$) (?v1 Enat$)) (=> (= ?v0 ?v1) (less_eq$ ?v0 ?v1))) :named a12))
(assert (! (forall ((?v0 A_llist$)) (! (= (fun_app$a (llcp$ ?v0) ?v0) (llength$ ?v0)) :pattern ((llcp$ ?v0)))) :named a13))
(assert (! (forall ((?v0 Enat$) (?v1 Enat$)) (=> (less_eq$ ?v0 ?v1) (= (fun_app$b (min$ ?v0) ?v1) ?v0))) :named a14))
(assert (! (forall ((?v0 Enat$) (?v1 Enat$)) (=> (less_eq$ ?v0 ?v1) (= (fun_app$b (min$ ?v1) ?v0) ?v0))) :named a15))
(check-sat)
;(get-unsat-core)
